# Instance R210 - 90 dynamic requests - 10 static requests
Dyn   Stat
90    10
ID    RD
2     -1
15    -1
21    -1
28    -1
31    -1
52    -1
56    -1
58    -1
59    -1
92    -1
1     140
3     53
4     204
5     6
6     31
7     70
8     31
9     106
10    221
11    200
12    10
13    146
14    21
16    70
17    230
18    94
19    89
20    240
22    151
23    62
24    294
25    248
26    305
27    1
29    22
30    115
32    257
33    10
34    176
35    186
36    9
37    100
38    114
39    21
40    246
41    166
42    16
43    149
44    139
45    20
46    205
47    6
48    132
49    56
50    183
51    51
53    21
54    238
55    202
57    72
60    92
61    5
62    52
63    3
64    9
65    6
66    450
67    261
68    123
69    68
70    118
71    85
72    21
73    69
74    283
75    23
76    252
77    68
78    62
79    236
80    68
81    193
82    10
83    7
84    65
85    75
86    75
87    184
88    211
89    186
90    61
91    52
93    234
94    175
95    1
96    217
97    407
98    8
99    192
100   526
